883927
77,50,78,28,39,93,25,11,16,18,58,89,23,42,51,53,97,70,33,45,27,10,22,64,21,83,91,38,6,65,3,13,80,85,44,86,75,49,87,82,14,15,81,57,60,66,34,41,96,1,26,63,4,2,7,88,84,52,54,43,90,71,35,37,98,79,67,12,62,30,61,92,48,9,55,17,68,74,5,40,76,95,29,20,19,59,31,69,73,36,47,0,32,8,56,46,94,72,24
